(set-logic QF_LRA)
(declare-fun act_unload_at_depot@1 () Bool)
(declare-fun parameter_unload_at_depot_pos@1 () Real)
(declare-fun fluent_robot_at_r0_p0@0 () Bool)
(declare-fun fluent_robot_at_r1_p0@0 () Bool)
(declare-fun fluent_robot_at_r0_p1@0 () Bool)
(declare-fun fluent_robot_at_r1_p1@0 () Bool)
(declare-fun fluent_robot_at_r0_p2@0 () Bool)
(declare-fun parameter_unload_at_depot_r@1 () Real)
(declare-fun fluent_robot_free_r0@0 () Bool)
(declare-fun fluent_robot_free_r1@0 () Bool)
(declare-fun fluent_robot_at_r1_p2@0 () Bool)
(declare-fun fluent_pallet_at_plt0_p0@0 () Bool)
(declare-fun fluent_pallet_at_plt0_p1@0 () Bool)
(declare-fun fluent_pallet_at_plt0_p2@0 () Bool)
(declare-fun fluent_battery_level_r0@0 () Real)
(declare-fun parameter_unload_at_depot_pallet@1 () Real)
(declare-fun fluent_battery_level_r1@0 () Real)
(declare-fun fluent_position_free_p0@0 () Bool)
(declare-fun fluent_position_free_p1@0 () Bool)
(declare-fun fluent_position_free_p2@0 () Bool)
(declare-fun dur_make_treatment@1 () Real)
(declare-fun t@1 () Real)
(declare-fun fluent_robot_has_r0_plt0@0 () Bool)
(declare-fun fluent_robot_has_r1_plt0@0 () Bool)
(declare-fun fluent_ready_plt0_p0_t0@0 () Bool)
(declare-fun fluent_ready_plt0_p1_t0@0 () Bool)
(declare-fun fluent_ready_plt0_p2_t0@0 () Bool)
(declare-fun parameter_make_treatment_t@1 () Real)
(declare-fun parameter_make_treatment_pallet@1 () Real)
(declare-fun fluent_treated_plt0_t0@0 () Bool)
(declare-fun parameter_make_treatment_r@1 () Real)
(declare-fun act_move@1 () Bool)
(declare-fun parameter_move_topos@1 () Real)
(declare-fun parameter_make_treatment_pos@1 () Real)
(declare-fun parameter_move_frompos@1 () Real)
(declare-fun parameter_move_r@1 () Real)
(declare-fun fluent_robot_at_r0_p0@1 () Bool)
(declare-fun fluent_robot_at_r1_p0@1 () Bool)
(declare-fun fluent_robot_at_r0_p1@1 () Bool)
(declare-fun fluent_robot_at_r1_p1@1 () Bool)
(declare-fun fluent_robot_at_r0_p2@1 () Bool)
(declare-fun act_make_treatment@1 () Bool)
(declare-fun fluent_robot_at_r1_p2@1 () Bool)
(declare-fun fluent_battery_level_r0@1 () Real)
(declare-fun fluent_battery_level_r1@1 () Real)
(declare-fun act_load@1 () Bool)
(declare-fun parameter_load_t@1 () Real)
(declare-fun parameter_load_pos@1 () Real)
(declare-fun parameter_load_pallet@1 () Real)
(declare-fun parameter_load_r@1 () Real)
(declare-fun fluent_robot_free_r0@1 () Bool)
(declare-fun fluent_robot_free_r1@1 () Bool)
(declare-fun fluent_ready_plt0_p0_t0@1 () Bool)
(declare-fun fluent_ready_plt0_p1_t0@1 () Bool)
(declare-fun fluent_ready_plt0_p2_t0@1 () Bool)
(declare-fun fluent_pallet_at_plt0_p0@1 () Bool)
(declare-fun fluent_pallet_at_plt0_p1@1 () Bool)
(declare-fun fluent_pallet_at_plt0_p2@1 () Bool)
(declare-fun fluent_robot_has_r0_plt0@1 () Bool)
(declare-fun fluent_robot_has_r1_plt0@1 () Bool)
(declare-fun fluent_treated_plt0_t0@1 () Bool)
(declare-fun fluent_position_free_p0@1 () Bool)
(declare-fun fluent_position_free_p1@1 () Bool)
(declare-fun fluent_position_free_p2@1 () Bool)
(declare-fun act_load_at_depot@1 () Bool)
(declare-fun parameter_load_at_depot_pos@1 () Real)
(declare-fun parameter_load_at_depot_r@1 () Real)
(declare-fun parameter_load_at_depot_pallet@1 () Real)
(assert (let ((.def_0 (= parameter_load_at_depot_pallet@1 5.0))) (let ((.def_1 (= parameter_load_at_depot_r@1 1.0))) (let ((.def_2 (= parameter_load_at_depot_r@1 0.0))) (let ((.def_3 (or .def_2 .def_1))) (let ((.def_4 (= parameter_load_at_depot_pos@1 4.0))) (let ((.def_5 (= parameter_load_at_depot_pos@1 3.0))) (let ((.def_6 (= parameter_load_at_depot_pos@1 2.0))) (let ((.def_7 (or .def_6 .def_5 .def_4))) (let ((.def_8 (= parameter_move_r@1 1.0))) (let ((.def_9 (= parameter_move_r@1 0.0))) (let ((.def_10 (or .def_9 .def_8))) (let ((.def_11 (= parameter_move_frompos@1 4.0))) (let ((.def_12 (= parameter_move_frompos@1 3.0))) (let ((.def_13 (= parameter_move_frompos@1 2.0))) (let ((.def_14 (or .def_13 .def_12 .def_11))) (let ((.def_15 (= parameter_make_treatment_pos@1 4.0))) (let ((.def_16 (= parameter_make_treatment_pos@1 3.0))) (let ((.def_17 (= parameter_make_treatment_pos@1 2.0))) (let ((.def_18 (or .def_17 .def_16 .def_15))) (let ((.def_19 (= parameter_move_topos@1 4.0))) (let ((.def_20 (= parameter_move_topos@1 3.0))) (let ((.def_21 (= parameter_move_topos@1 2.0))) (let ((.def_22 (or .def_21 .def_20 .def_19))) (let ((.def_23 (= parameter_make_treatment_r@1 1.0))) (let ((.def_24 (= parameter_make_treatment_r@1 0.0))) (let ((.def_25 (or .def_24 .def_23))) (let ((.def_26 (= parameter_make_treatment_pallet@1 5.0))) (let ((.def_27 (= parameter_make_treatment_t@1 6.0))) (let ((.def_28 (= parameter_load_r@1 1.0))) (let ((.def_29 (= parameter_load_r@1 0.0))) (let ((.def_30 (or .def_29 .def_28))) (let ((.def_31 (= parameter_load_pallet@1 5.0))) (let ((.def_32 (= parameter_load_pos@1 4.0))) (let ((.def_33 (= parameter_load_pos@1 3.0))) (let ((.def_34 (= parameter_load_pos@1 2.0))) (let ((.def_35 (or .def_34 .def_33 .def_32))) (let ((.def_36 (= parameter_unload_at_depot_pallet@1 5.0))) (let ((.def_37 (= parameter_load_t@1 6.0))) (let ((.def_38 (= parameter_unload_at_depot_r@1 1.0))) (let ((.def_39 (= parameter_unload_at_depot_r@1 0.0))) (let ((.def_40 (or .def_39 .def_38))) (let ((.def_41 (<= fluent_battery_level_r1@1 100.0))) (let ((.def_42 (<= 0.0 fluent_battery_level_r1@1))) (let ((.def_43 (= parameter_unload_at_depot_pos@1 4.0))) (let ((.def_44 (= parameter_unload_at_depot_pos@1 3.0))) (let ((.def_45 (= parameter_unload_at_depot_pos@1 2.0))) (let ((.def_46 (or .def_45 .def_44 .def_43))) (let ((.def_47 (<= fluent_battery_level_r0@1 100.0))) (let ((.def_48 (<= 0.0 fluent_battery_level_r0@1))) (let ((.def_49 (and act_move@1 true .def_8))) (let ((.def_50 (= fluent_battery_level_r1@0 fluent_battery_level_r1@1))) (let ((.def_51 (not .def_50))) (let ((.def_52 (=> .def_51 .def_49))) (let ((.def_53 (and act_move@1 true .def_9))) (let ((.def_54 (= fluent_battery_level_r0@0 fluent_battery_level_r0@1))) (let ((.def_55 (not .def_54))) (let ((.def_56 (=> .def_55 .def_53))) (let ((.def_57 (and act_make_treatment@1 true .def_26 .def_15))) (let ((.def_58 (and act_unload_at_depot@1 true .def_36 .def_43))) (let ((.def_59 (and .def_58 .def_57))) (let ((.def_60 (not .def_59))) (let ((.def_61 (and act_load_at_depot@1 true .def_0 .def_4))) (let ((.def_62 (and .def_61 .def_57))) (let ((.def_63 (not .def_62))) (let ((.def_64 (and .def_61 .def_58))) (let ((.def_65 (not .def_64))) (let ((.def_66 (and act_load@1 true .def_31 .def_32))) (let ((.def_67 (and .def_66 .def_57))) (let ((.def_68 (not .def_67))) (let ((.def_69 (and .def_66 .def_58))) (let ((.def_70 (not .def_69))) (let ((.def_71 (and .def_66 .def_61))) (let ((.def_72 (not .def_71))) (let ((.def_73 (or .def_66 .def_61 .def_58 .def_57))) (let ((.def_74 (= fluent_pallet_at_plt0_p2@0 fluent_pallet_at_plt0_p2@1))) (let ((.def_75 (not .def_74))) (let ((.def_76 (=> .def_75 .def_73))) (let ((.def_77 (and act_make_treatment@1 true .def_26 .def_16))) (let ((.def_78 (and act_unload_at_depot@1 true .def_36 .def_44))) (let ((.def_79 (and .def_78 .def_77))) (let ((.def_80 (not .def_79))) (let ((.def_81 (and act_load_at_depot@1 true .def_0 .def_5))) (let ((.def_82 (and .def_81 .def_77))) (let ((.def_83 (not .def_82))) (let ((.def_84 (and .def_81 .def_78))) (let ((.def_85 (not .def_84))) (let ((.def_86 (and act_load@1 true .def_31 .def_33))) (let ((.def_87 (and .def_86 .def_77))) (let ((.def_88 (not .def_87))) (let ((.def_89 (and .def_86 .def_78))) (let ((.def_90 (not .def_89))) (let ((.def_91 (and .def_86 .def_81))) (let ((.def_92 (not .def_91))) (let ((.def_93 (or .def_86 .def_81 .def_78 .def_77))) (let ((.def_94 (= fluent_pallet_at_plt0_p1@0 fluent_pallet_at_plt0_p1@1))) (let ((.def_95 (not .def_94))) (let ((.def_96 (=> .def_95 .def_93))) (let ((.def_97 (and act_make_treatment@1 true .def_26 .def_17))) (let ((.def_98 (and act_unload_at_depot@1 true .def_36 .def_45))) (let ((.def_99 (and .def_98 .def_97))) (let ((.def_100 (not .def_99))) (let ((.def_101 (and act_load_at_depot@1 true .def_0 .def_6))) (let ((.def_102 (and .def_101 .def_97))) (let ((.def_103 (not .def_102))) (let ((.def_104 (and .def_101 .def_98))) (let ((.def_105 (not .def_104))) (let ((.def_106 (and act_load@1 true .def_31 .def_34))) (let ((.def_107 (and .def_106 .def_97))) (let ((.def_108 (not .def_107))) (let ((.def_109 (and .def_106 .def_98))) (let ((.def_110 (not .def_109))) (let ((.def_111 (and .def_106 .def_101))) (let ((.def_112 (not .def_111))) (let ((.def_113 (or .def_106 .def_101 .def_98 .def_97))) (let ((.def_114 (= fluent_pallet_at_plt0_p0@0 fluent_pallet_at_plt0_p0@1))) (let ((.def_115 (not .def_114))) (let ((.def_116 (=> .def_115 .def_113))) (let ((.def_117 (and act_load@1 true .def_31 .def_37))) (let ((.def_118 (= fluent_treated_plt0_t0@0 fluent_treated_plt0_t0@1))) (let ((.def_119 (not .def_118))) (let ((.def_120 (=> .def_119 .def_117))) (let ((.def_121 (and act_make_treatment@1 true .def_15))) (let ((.def_122 (and act_load@1 true .def_32))) (let ((.def_123 (and .def_122 .def_121))) (let ((.def_124 (not .def_123))) (let ((.def_125 (or .def_122 .def_121))) (let ((.def_126 (= fluent_position_free_p2@0 fluent_position_free_p2@1))) (let ((.def_127 (not .def_126))) (let ((.def_128 (=> .def_127 .def_125))) (let ((.def_129 (and act_make_treatment@1 true .def_16))) (let ((.def_130 (and act_load@1 true .def_33))) (let ((.def_131 (and .def_130 .def_129))) (let ((.def_132 (not .def_131))) (let ((.def_133 (or .def_130 .def_129))) (let ((.def_134 (= fluent_position_free_p1@0 fluent_position_free_p1@1))) (let ((.def_135 (not .def_134))) (let ((.def_136 (=> .def_135 .def_133))) (let ((.def_137 (and act_make_treatment@1 true .def_17))) (let ((.def_138 (and act_load@1 true .def_34))) (let ((.def_139 (and .def_138 .def_137))) (let ((.def_140 (not .def_139))) (let ((.def_141 (or .def_138 .def_137))) (let ((.def_142 (= fluent_position_free_p0@0 fluent_position_free_p0@1))) (let ((.def_143 (not .def_142))) (let ((.def_144 (=> .def_143 .def_141))) (let ((.def_145 (+ t@1 10.0))) (let ((.def_146 (= t@1 .def_145))) (let ((.def_147 (and act_make_treatment@1 true .def_146 .def_26 .def_15 .def_27))) (let ((.def_148 (and act_load@1 true .def_31 .def_32 .def_37))) (let ((.def_149 (and .def_148 .def_147))) (let ((.def_150 (not .def_149))) (let ((.def_151 (or .def_148 .def_147))) (let ((.def_152 (= fluent_ready_plt0_p2_t0@0 fluent_ready_plt0_p2_t0@1))) (let ((.def_153 (not .def_152))) (let ((.def_154 (=> .def_153 .def_151))) (let ((.def_155 (and act_make_treatment@1 true .def_146 .def_26 .def_16 .def_27))) (let ((.def_156 (and act_load@1 true .def_31 .def_33 .def_37))) (let ((.def_157 (and .def_156 .def_155))) (let ((.def_158 (not .def_157))) (let ((.def_159 (or .def_156 .def_155))) (let ((.def_160 (= fluent_ready_plt0_p1_t0@0 fluent_ready_plt0_p1_t0@1))) (let ((.def_161 (not .def_160))) (let ((.def_162 (=> .def_161 .def_159))) (let ((.def_163 (and act_make_treatment@1 true .def_146 .def_26 .def_17 .def_27))) (let ((.def_164 (and act_load@1 true .def_31 .def_34 .def_37))) (let ((.def_165 (and .def_164 .def_163))) (let ((.def_166 (not .def_165))) (let ((.def_167 (or .def_164 .def_163))) (let ((.def_168 (= fluent_ready_plt0_p0_t0@0 fluent_ready_plt0_p0_t0@1))) (let ((.def_169 (not .def_168))) (let ((.def_170 (=> .def_169 .def_167))) (let ((.def_171 (and act_make_treatment@1 true .def_23 .def_26))) (let ((.def_172 (and act_unload_at_depot@1 true .def_38 .def_36))) (let ((.def_173 (and .def_172 .def_171))) (let ((.def_174 (not .def_173))) (let ((.def_175 (and act_load_at_depot@1 true .def_1 .def_0))) (let ((.def_176 (and .def_175 .def_171))) (let ((.def_177 (not .def_176))) (let ((.def_178 (and .def_175 .def_172))) (let ((.def_179 (not .def_178))) (let ((.def_180 (and act_load@1 true .def_28 .def_31))) (let ((.def_181 (and .def_180 .def_171))) (let ((.def_182 (not .def_181))) (let ((.def_183 (and .def_180 .def_172))) (let ((.def_184 (not .def_183))) (let ((.def_185 (and .def_180 .def_175))) (let ((.def_186 (not .def_185))) (let ((.def_187 (or .def_180 .def_175 .def_172 .def_171))) (let ((.def_188 (= fluent_robot_has_r1_plt0@0 fluent_robot_has_r1_plt0@1))) (let ((.def_189 (not .def_188))) (let ((.def_190 (=> .def_189 .def_187))) (let ((.def_191 (and act_make_treatment@1 true .def_24 .def_26))) (let ((.def_192 (and act_unload_at_depot@1 true .def_39 .def_36))) (let ((.def_193 (and .def_192 .def_191))) (let ((.def_194 (not .def_193))) (let ((.def_195 (and act_load_at_depot@1 true .def_2 .def_0))) (let ((.def_196 (and .def_195 .def_191))) (let ((.def_197 (not .def_196))) (let ((.def_198 (and .def_195 .def_192))) (let ((.def_199 (not .def_198))) (let ((.def_200 (and act_load@1 true .def_29 .def_31))) (let ((.def_201 (and .def_200 .def_191))) (let ((.def_202 (not .def_201))) (let ((.def_203 (and .def_200 .def_192))) (let ((.def_204 (not .def_203))) (let ((.def_205 (and .def_200 .def_195))) (let ((.def_206 (not .def_205))) (let ((.def_207 (or .def_200 .def_195 .def_192 .def_191))) (let ((.def_208 (= fluent_robot_has_r0_plt0@0 fluent_robot_has_r0_plt0@1))) (let ((.def_209 (not .def_208))) (let ((.def_210 (=> .def_209 .def_207))) (let ((.def_211 (and act_make_treatment@1 true .def_23))) (let ((.def_212 (and act_unload_at_depot@1 true .def_38))) (let ((.def_213 (and .def_212 .def_211))) (let ((.def_214 (not .def_213))) (let ((.def_215 (and act_load_at_depot@1 true .def_1))) (let ((.def_216 (and .def_215 .def_211))) (let ((.def_217 (not .def_216))) (let ((.def_218 (and .def_215 .def_212))) (let ((.def_219 (not .def_218))) (let ((.def_220 (and act_load@1 true .def_28))) (let ((.def_221 (and .def_220 .def_211))) (let ((.def_222 (not .def_221))) (let ((.def_223 (and .def_220 .def_212))) (let ((.def_224 (not .def_223))) (let ((.def_225 (and .def_220 .def_215))) (let ((.def_226 (not .def_225))) (let ((.def_227 (or .def_220 .def_215 .def_212 .def_211))) (let ((.def_228 (= fluent_robot_free_r1@0 fluent_robot_free_r1@1))) (let ((.def_229 (not .def_228))) (let ((.def_230 (=> .def_229 .def_227))) (let ((.def_231 (and act_make_treatment@1 true .def_24))) (let ((.def_232 (and act_unload_at_depot@1 true .def_39))) (let ((.def_233 (and .def_232 .def_231))) (let ((.def_234 (not .def_233))) (let ((.def_235 (and act_load_at_depot@1 true .def_2))) (let ((.def_236 (and .def_235 .def_231))) (let ((.def_237 (not .def_236))) (let ((.def_238 (and .def_235 .def_232))) (let ((.def_239 (not .def_238))) (let ((.def_240 (and act_load@1 true .def_29))) (let ((.def_241 (and .def_240 .def_231))) (let ((.def_242 (not .def_241))) (let ((.def_243 (and .def_240 .def_232))) (let ((.def_244 (not .def_243))) (let ((.def_245 (and .def_240 .def_235))) (let ((.def_246 (not .def_245))) (let ((.def_247 (or .def_240 .def_235 .def_232 .def_231))) (let ((.def_248 (= fluent_robot_free_r0@0 fluent_robot_free_r0@1))) (let ((.def_249 (not .def_248))) (let ((.def_250 (=> .def_249 .def_247))) (let ((.def_251 (and act_move@1 true .def_8 .def_11))) (let ((.def_252 (and act_move@1 true .def_8 .def_19))) (let ((.def_253 (and .def_252 .def_251))) (let ((.def_254 (not .def_253))) (let ((.def_255 (or .def_252 .def_251))) (let ((.def_256 (= fluent_robot_at_r1_p2@0 fluent_robot_at_r1_p2@1))) (let ((.def_257 (not .def_256))) (let ((.def_258 (=> .def_257 .def_255))) (let ((.def_259 (and act_move@1 true .def_9 .def_11))) (let ((.def_260 (and act_move@1 true .def_9 .def_19))) (let ((.def_261 (and .def_260 .def_259))) (let ((.def_262 (not .def_261))) (let ((.def_263 (or .def_260 .def_259))) (let ((.def_264 (= fluent_robot_at_r0_p2@0 fluent_robot_at_r0_p2@1))) (let ((.def_265 (not .def_264))) (let ((.def_266 (=> .def_265 .def_263))) (let ((.def_267 (and act_move@1 true .def_8 .def_12))) (let ((.def_268 (and act_move@1 true .def_8 .def_20))) (let ((.def_269 (and .def_268 .def_267))) (let ((.def_270 (not .def_269))) (let ((.def_271 (or .def_268 .def_267))) (let ((.def_272 (= fluent_robot_at_r1_p1@0 fluent_robot_at_r1_p1@1))) (let ((.def_273 (not .def_272))) (let ((.def_274 (=> .def_273 .def_271))) (let ((.def_275 (and act_move@1 true .def_9 .def_12))) (let ((.def_276 (and act_move@1 true .def_9 .def_20))) (let ((.def_277 (and .def_276 .def_275))) (let ((.def_278 (not .def_277))) (let ((.def_279 (or .def_276 .def_275))) (let ((.def_280 (= fluent_robot_at_r0_p1@0 fluent_robot_at_r0_p1@1))) (let ((.def_281 (not .def_280))) (let ((.def_282 (=> .def_281 .def_279))) (let ((.def_283 (and act_move@1 true .def_8 .def_13))) (let ((.def_284 (and act_move@1 true .def_8 .def_21))) (let ((.def_285 (and .def_284 .def_283))) (let ((.def_286 (not .def_285))) (let ((.def_287 (or .def_284 .def_283))) (let ((.def_288 (= fluent_robot_at_r1_p0@0 fluent_robot_at_r1_p0@1))) (let ((.def_289 (not .def_288))) (let ((.def_290 (=> .def_289 .def_287))) (let ((.def_291 (and act_move@1 true .def_9 .def_13))) (let ((.def_292 (and act_move@1 true .def_9 .def_21))) (let ((.def_293 (and .def_292 .def_291))) (let ((.def_294 (not .def_293))) (let ((.def_295 (or .def_292 .def_291))) (let ((.def_296 (= fluent_robot_at_r0_p0@0 fluent_robot_at_r0_p0@1))) (let ((.def_297 (not .def_296))) (let ((.def_298 (=> .def_297 .def_295))) (let ((.def_299 (and .def_298 .def_294 .def_290 .def_286 .def_282 .def_278 .def_274 .def_270 .def_266 .def_262 .def_258 .def_254 .def_250 .def_246 .def_244 .def_242 .def_239 .def_237 .def_234 .def_230 .def_226 .def_224 .def_222 .def_219 .def_217 .def_214 .def_210 .def_206 .def_204 .def_202 .def_199 .def_197 .def_194 .def_190 .def_186 .def_184 .def_182 .def_179 .def_177 .def_174 .def_170 .def_166 .def_162 .def_158 .def_154 .def_150 .def_144 .def_140 .def_136 .def_132 .def_128 .def_124 .def_120 .def_116 .def_112 .def_110 .def_108 .def_105 .def_103 .def_100 .def_96 .def_92 .def_90 .def_88 .def_85 .def_83 .def_80 .def_76 .def_72 .def_70 .def_68 .def_65 .def_63 .def_60 .def_56 .def_52))) (let ((.def_300 (= t@1 t@1))) (let ((.def_301 (and act_unload_at_depot@1 act_make_treatment@1 .def_300))) (let ((.def_302 (not .def_301))) (let ((.def_303 (= .def_145 t@1))) (let ((.def_304 (and act_make_treatment@1 act_load@1 .def_303))) (let ((.def_305 (not .def_304))) (let ((.def_306 (and act_unload_at_depot@1 act_load@1 .def_300))) (let ((.def_307 (not .def_306))) (let ((.def_308 (and act_unload_at_depot@1 act_load_at_depot@1 .def_300))) (let ((.def_309 (not .def_308))) (let ((.def_310 (and act_make_treatment@1 act_move@1 .def_300))) (let ((.def_311 (not .def_310))) (let ((.def_312 (and act_load@1 act_load_at_depot@1 .def_300))) (let ((.def_313 (not .def_312))) (let ((.def_314 (and act_make_treatment@1 act_load_at_depot@1 .def_300))) (let ((.def_315 (not .def_314))) (let ((.def_316 (and act_load@1 act_move@1 .def_300))) (let ((.def_317 (not .def_316))) (let ((.def_318 (and act_unload_at_depot@1 act_move@1 .def_300))) (let ((.def_319 (not .def_318))) (let ((.def_320 (and act_load@1 act_make_treatment@1 .def_300))) (let ((.def_321 (not .def_320))) (let ((.def_322 (+ t@1 dur_make_treatment@1))) (let ((.def_323 (= .def_322 t@1))) (let ((.def_324 (and act_make_treatment@1 act_load@1 .def_323))) (let ((.def_325 (not .def_324))) (let ((.def_326 (and act_load_at_depot@1 act_move@1 .def_300))) (let ((.def_327 (not .def_326))) (let ((.def_328 (and .def_327 .def_325 .def_321 .def_319 .def_317 .def_315 .def_313 .def_311 .def_309 .def_307 .def_305 .def_302))) (let ((.def_329 (<= 0.0 t@1))) (let ((.def_330 (and .def_26 .def_16 .def_27))) (let ((.def_331 (ite .def_330 fluent_ready_plt0_p1_t0@1 fluent_ready_plt0_p0_t0@1))) (let ((.def_332 (and .def_26 .def_15 .def_27))) (let ((.def_333 (ite .def_332 fluent_ready_plt0_p2_t0@1 .def_331))) (let ((.def_334 (= .def_333 true))) (let ((.def_335 (=> true .def_334))) (let ((.def_336 (and .def_146 .def_335))) (let ((.def_337 (ite .def_23 fluent_robot_free_r1@1 fluent_robot_free_r0@1))) (let ((.def_338 (= .def_337 true))) (let ((.def_339 (=> true .def_338))) (let ((.def_340 (and .def_26 .def_16))) (let ((.def_341 (ite .def_340 fluent_pallet_at_plt0_p1@1 fluent_pallet_at_plt0_p0@1))) (let ((.def_342 (and .def_26 .def_15))) (let ((.def_343 (ite .def_342 fluent_pallet_at_plt0_p2@1 .def_341))) (let ((.def_344 (= .def_343 true))) (let ((.def_345 (=> true .def_344))) (let ((.def_346 (and .def_23 .def_26))) (let ((.def_347 (ite .def_346 fluent_robot_has_r1_plt0@1 fluent_robot_has_r0_plt0@1))) (let ((.def_348 (= .def_347 false))) (let ((.def_349 (=> true .def_348))) (let ((.def_350 (ite .def_16 fluent_position_free_p1@1 fluent_position_free_p0@1))) (let ((.def_351 (ite .def_15 fluent_position_free_p2@1 .def_350))) (let ((.def_352 (= .def_351 false))) (let ((.def_353 (=> true .def_352))) (let ((.def_354 (and .def_300 .def_353 .def_349 .def_345 .def_339))) (let ((.def_355 (ite .def_16 fluent_position_free_p1@0 fluent_position_free_p0@0))) (let ((.def_356 (ite .def_15 fluent_position_free_p2@0 .def_355))) (let ((.def_357 (and fluent_treated_plt0_t0@0 .def_356))) (let ((.def_358 (<= .def_322 t@1))) (let ((.def_359 (< (- 1.0) .def_322))) (let ((.def_360 (and .def_359 .def_358))) (let ((.def_361 (=> .def_360 .def_357))) (let ((.def_362 (not fluent_treated_plt0_t0@0))) (let ((.def_363 (ite .def_346 fluent_robot_has_r1_plt0@0 fluent_robot_has_r0_plt0@0))) (let ((.def_364 (and .def_23 .def_17))) (let ((.def_365 (ite .def_364 fluent_robot_at_r1_p0@0 fluent_robot_at_r0_p0@0))) (let ((.def_366 (and .def_24 .def_16))) (let ((.def_367 (ite .def_366 fluent_robot_at_r0_p1@0 .def_365))) (let ((.def_368 (and .def_23 .def_16))) (let ((.def_369 (ite .def_368 fluent_robot_at_r1_p1@0 .def_367))) (let ((.def_370 (and .def_24 .def_15))) (let ((.def_371 (ite .def_370 fluent_robot_at_r0_p2@0 .def_369))) (let ((.def_372 (and .def_23 .def_15))) (let ((.def_373 (ite .def_372 fluent_robot_at_r1_p2@0 .def_371))) (let ((.def_374 (and .def_16 .def_27))) (let ((.def_375 (ite .def_374 false true))) (let ((.def_376 (and .def_15 .def_27))) (let ((.def_377 (ite .def_376 false .def_375))) (let ((.def_378 (and .def_377 .def_356 .def_373 .def_363 .def_362))) (let ((.def_379 (<= t@1 t@1))) (let ((.def_380 (< (- 1.0) t@1))) (let ((.def_381 (and .def_380 .def_379))) (let ((.def_382 (=> .def_381 .def_378))) (let ((.def_383 (<= dur_make_treatment@1 20.0))) (let ((.def_384 (<= 20.0 dur_make_treatment@1))) (let ((.def_385 (and .def_384 .def_383))) (let ((.def_386 (and .def_385 .def_358 .def_382 .def_361 .def_354 .def_336))) (let ((.def_387 (=> act_make_treatment@1 .def_386))) (let ((.def_388 (and .def_38 .def_36))) (let ((.def_389 (ite .def_388 fluent_robot_has_r1_plt0@1 fluent_robot_has_r0_plt0@1))) (let ((.def_390 (= .def_389 false))) (let ((.def_391 (=> true .def_390))) (let ((.def_392 (ite .def_38 fluent_robot_free_r1@1 fluent_robot_free_r0@1))) (let ((.def_393 (= .def_392 true))) (let ((.def_394 (=> true .def_393))) (let ((.def_395 (and .def_36 .def_44))) (let ((.def_396 (ite .def_395 fluent_pallet_at_plt0_p1@1 fluent_pallet_at_plt0_p0@1))) (let ((.def_397 (and .def_36 .def_43))) (let ((.def_398 (ite .def_397 fluent_pallet_at_plt0_p2@1 .def_396))) (let ((.def_399 (= .def_398 true))) (let ((.def_400 (=> true .def_399))) (let ((.def_401 (ite .def_388 fluent_robot_has_r1_plt0@0 fluent_robot_has_r0_plt0@0))) (let ((.def_402 (and .def_38 .def_45))) (let ((.def_403 (ite .def_402 fluent_robot_at_r1_p0@0 fluent_robot_at_r0_p0@0))) (let ((.def_404 (and .def_39 .def_44))) (let ((.def_405 (ite .def_404 fluent_robot_at_r0_p1@0 .def_403))) (let ((.def_406 (and .def_38 .def_44))) (let ((.def_407 (ite .def_406 fluent_robot_at_r1_p1@0 .def_405))) (let ((.def_408 (and .def_39 .def_43))) (let ((.def_409 (ite .def_408 fluent_robot_at_r0_p2@0 .def_407))) (let ((.def_410 (and .def_38 .def_43))) (let ((.def_411 (ite .def_410 fluent_robot_at_r1_p2@0 .def_409))) (let ((.def_412 (ite .def_44 false false))) (let ((.def_413 (ite .def_43 true .def_412))) (let ((.def_414 (and .def_413 .def_411 .def_401 .def_400 .def_394 .def_391))) (let ((.def_415 (=> act_unload_at_depot@1 .def_414))) (let ((.def_416 (and .def_0 .def_5))) (let ((.def_417 (ite .def_416 fluent_pallet_at_plt0_p1@1 fluent_pallet_at_plt0_p0@1))) (let ((.def_418 (and .def_0 .def_4))) (let ((.def_419 (ite .def_418 fluent_pallet_at_plt0_p2@1 .def_417))) (let ((.def_420 (= .def_419 false))) (let ((.def_421 (=> true .def_420))) (let ((.def_422 (and .def_1 .def_0))) (let ((.def_423 (ite .def_422 fluent_robot_has_r1_plt0@1 fluent_robot_has_r0_plt0@1))) (let ((.def_424 (= .def_423 true))) (let ((.def_425 (=> true .def_424))) (let ((.def_426 (ite .def_1 fluent_robot_free_r1@1 fluent_robot_free_r0@1))) (let ((.def_427 (= .def_426 false))) (let ((.def_428 (=> true .def_427))) (let ((.def_429 (ite .def_416 fluent_pallet_at_plt0_p1@0 fluent_pallet_at_plt0_p0@0))) (let ((.def_430 (ite .def_418 fluent_pallet_at_plt0_p2@0 .def_429))) (let ((.def_431 (ite .def_1 fluent_robot_free_r1@0 fluent_robot_free_r0@0))) (let ((.def_432 (and .def_1 .def_6))) (let ((.def_433 (ite .def_432 fluent_robot_at_r1_p0@0 fluent_robot_at_r0_p0@0))) (let ((.def_434 (and .def_2 .def_5))) (let ((.def_435 (ite .def_434 fluent_robot_at_r0_p1@0 .def_433))) (let ((.def_436 (and .def_1 .def_5))) (let ((.def_437 (ite .def_436 fluent_robot_at_r1_p1@0 .def_435))) (let ((.def_438 (and .def_2 .def_4))) (let ((.def_439 (ite .def_438 fluent_robot_at_r0_p2@0 .def_437))) (let ((.def_440 (and .def_1 .def_4))) (let ((.def_441 (ite .def_440 fluent_robot_at_r1_p2@0 .def_439))) (let ((.def_442 (ite .def_5 false false))) (let ((.def_443 (ite .def_4 true .def_442))) (let ((.def_444 (and .def_443 .def_441 .def_431 .def_430 .def_428 .def_425 .def_421))) (let ((.def_445 (=> act_load_at_depot@1 .def_444))) (let ((.def_446 (ite .def_33 fluent_position_free_p1@1 fluent_position_free_p0@1))) (let ((.def_447 (ite .def_32 fluent_position_free_p2@1 .def_446))) (let ((.def_448 (= .def_447 true))) (let ((.def_449 (=> true .def_448))) (let ((.def_450 (= fluent_treated_plt0_t0@1 true))) (let ((.def_451 (=> true .def_450))) (let ((.def_452 (and .def_28 .def_31))) (let ((.def_453 (ite .def_452 fluent_robot_has_r1_plt0@1 fluent_robot_has_r0_plt0@1))) (let ((.def_454 (= .def_453 true))) (let ((.def_455 (=> true .def_454))) (let ((.def_456 (and .def_31 .def_33))) (let ((.def_457 (ite .def_456 fluent_pallet_at_plt0_p1@1 fluent_pallet_at_plt0_p0@1))) (let ((.def_458 (and .def_31 .def_32))) (let ((.def_459 (ite .def_458 fluent_pallet_at_plt0_p2@1 .def_457))) (let ((.def_460 (= .def_459 false))) (let ((.def_461 (=> true .def_460))) (let ((.def_462 (and .def_31 .def_33 .def_37))) (let ((.def_463 (ite .def_462 fluent_ready_plt0_p1_t0@1 fluent_ready_plt0_p0_t0@1))) (let ((.def_464 (and .def_31 .def_32 .def_37))) (let ((.def_465 (ite .def_464 fluent_ready_plt0_p2_t0@1 .def_463))) (let ((.def_466 (= .def_465 false))) (let ((.def_467 (=> true .def_466))) (let ((.def_468 (ite .def_28 fluent_robot_free_r1@1 fluent_robot_free_r0@1))) (let ((.def_469 (= .def_468 false))) (let ((.def_470 (=> true .def_469))) (let ((.def_471 (ite .def_456 fluent_pallet_at_plt0_p1@0 fluent_pallet_at_plt0_p0@0))) (let ((.def_472 (ite .def_458 fluent_pallet_at_plt0_p2@0 .def_471))) (let ((.def_473 (ite .def_28 fluent_robot_free_r1@0 fluent_robot_free_r0@0))) (let ((.def_474 (and .def_28 .def_34))) (let ((.def_475 (ite .def_474 fluent_robot_at_r1_p0@0 fluent_robot_at_r0_p0@0))) (let ((.def_476 (and .def_29 .def_33))) (let ((.def_477 (ite .def_476 fluent_robot_at_r0_p1@0 .def_475))) (let ((.def_478 (and .def_28 .def_33))) (let ((.def_479 (ite .def_478 fluent_robot_at_r1_p1@0 .def_477))) (let ((.def_480 (and .def_29 .def_32))) (let ((.def_481 (ite .def_480 fluent_robot_at_r0_p2@0 .def_479))) (let ((.def_482 (and .def_28 .def_32))) (let ((.def_483 (ite .def_482 fluent_robot_at_r1_p2@0 .def_481))) (let ((.def_484 (ite .def_462 fluent_ready_plt0_p1_t0@0 fluent_ready_plt0_p0_t0@0))) (let ((.def_485 (ite .def_464 fluent_ready_plt0_p2_t0@0 .def_484))) (let ((.def_486 (and .def_485 .def_483 .def_473 .def_472 .def_470 .def_467 .def_461 .def_455 .def_451 .def_449))) (let ((.def_487 (=> act_load@1 .def_486))) (let ((.def_488 (and .def_12 .def_21))) (let ((.def_489 (ite .def_488 1.0 0.0))) (let ((.def_490 (and .def_11 .def_21))) (let ((.def_491 (ite .def_490 2.0 .def_489))) (let ((.def_492 (and .def_13 .def_20))) (let ((.def_493 (ite .def_492 1.0 .def_491))) (let ((.def_494 (and .def_12 .def_20))) (let ((.def_495 (ite .def_494 0.0 .def_493))) (let ((.def_496 (and .def_11 .def_20))) (let ((.def_497 (ite .def_496 1.0 .def_495))) (let ((.def_498 (and .def_13 .def_19))) (let ((.def_499 (ite .def_498 2.0 .def_497))) (let ((.def_500 (and .def_12 .def_19))) (let ((.def_501 (ite .def_500 1.0 .def_499))) (let ((.def_502 (and .def_11 .def_19))) (let ((.def_503 (ite .def_502 0.0 .def_501))) (let ((.def_504 (ite .def_8 fluent_battery_level_r1@0 fluent_battery_level_r0@0))) (let ((.def_505 (- .def_504 .def_503))) (let ((.def_506 (ite .def_8 fluent_battery_level_r1@1 fluent_battery_level_r0@1))) (let ((.def_507 (= .def_506 .def_505))) (let ((.def_508 (=> true .def_507))) (let ((.def_509 (and .def_8 .def_13))) (let ((.def_510 (ite .def_509 fluent_robot_at_r1_p0@1 fluent_robot_at_r0_p0@1))) (let ((.def_511 (and .def_9 .def_12))) (let ((.def_512 (ite .def_511 fluent_robot_at_r0_p1@1 .def_510))) (let ((.def_513 (and .def_8 .def_12))) (let ((.def_514 (ite .def_513 fluent_robot_at_r1_p1@1 .def_512))) (let ((.def_515 (and .def_9 .def_11))) (let ((.def_516 (ite .def_515 fluent_robot_at_r0_p2@1 .def_514))) (let ((.def_517 (and .def_8 .def_11))) (let ((.def_518 (ite .def_517 fluent_robot_at_r1_p2@1 .def_516))) (let ((.def_519 (= .def_518 false))) (let ((.def_520 (=> true .def_519))) (let ((.def_521 (and .def_8 .def_21))) (let ((.def_522 (ite .def_521 fluent_robot_at_r1_p0@1 fluent_robot_at_r0_p0@1))) (let ((.def_523 (and .def_9 .def_20))) (let ((.def_524 (ite .def_523 fluent_robot_at_r0_p1@1 .def_522))) (let ((.def_525 (and .def_8 .def_20))) (let ((.def_526 (ite .def_525 fluent_robot_at_r1_p1@1 .def_524))) (let ((.def_527 (and .def_9 .def_19))) (let ((.def_528 (ite .def_527 fluent_robot_at_r0_p2@1 .def_526))) (let ((.def_529 (and .def_8 .def_19))) (let ((.def_530 (ite .def_529 fluent_robot_at_r1_p2@1 .def_528))) (let ((.def_531 (= .def_530 true))) (let ((.def_532 (=> true .def_531))) (let ((.def_533 (<= .def_503 .def_504))) (let ((.def_534 (ite .def_509 fluent_robot_at_r1_p0@0 fluent_robot_at_r0_p0@0))) (let ((.def_535 (ite .def_511 fluent_robot_at_r0_p1@0 .def_534))) (let ((.def_536 (ite .def_513 fluent_robot_at_r1_p1@0 .def_535))) (let ((.def_537 (ite .def_515 fluent_robot_at_r0_p2@0 .def_536))) (let ((.def_538 (ite .def_517 fluent_robot_at_r1_p2@0 .def_537))) (let ((.def_539 (= parameter_move_frompos@1 parameter_move_topos@1))) (let ((.def_540 (not .def_539))) (let ((.def_541 (and .def_540 .def_538 .def_533 .def_532 .def_520 .def_508))) (let ((.def_542 (=> act_move@1 .def_541))) (let ((.def_543 (<= fluent_battery_level_r1@0 100.0))) (let ((.def_544 (<= 0.0 fluent_battery_level_r1@0))) (let ((.def_545 (<= fluent_battery_level_r0@0 100.0))) (let ((.def_546 (<= 0.0 fluent_battery_level_r0@0))) (let ((.def_547 (= false false))) (let ((.def_548 (= fluent_pallet_at_plt0_p1@0 false))) (let ((.def_549 (= fluent_pallet_at_plt0_p0@0 false))) (let ((.def_550 (= fluent_treated_plt0_t0@0 false))) (let ((.def_551 (= fluent_ready_plt0_p2_t0@0 false))) (let ((.def_552 (= fluent_ready_plt0_p1_t0@0 false))) (let ((.def_553 (= fluent_ready_plt0_p0_t0@0 false))) (let ((.def_554 (= fluent_robot_has_r1_plt0@0 false))) (let ((.def_555 (= fluent_robot_has_r0_plt0@0 false))) (let ((.def_556 (= fluent_robot_at_r1_p1@0 false))) (let ((.def_557 (= fluent_robot_at_r0_p1@0 false))) (let ((.def_558 (= fluent_robot_at_r1_p0@0 false))) (let ((.def_559 (= fluent_robot_at_r0_p0@0 false))) (let ((.def_560 (= true true))) (let ((.def_561 (= fluent_position_free_p2@0 true))) (let ((.def_562 (= fluent_position_free_p1@0 true))) (let ((.def_563 (= fluent_position_free_p0@0 true))) (let ((.def_564 (= 0.0 0.0))) (let ((.def_565 (= 1.0 1.0))) (let ((.def_566 (= 2.0 2.0))) (let ((.def_567 (= fluent_battery_level_r1@0 6.0))) (let ((.def_568 (= fluent_battery_level_r0@0 6.0))) (let ((.def_569 (= fluent_pallet_at_plt0_p2@0 true))) (let ((.def_570 (= fluent_robot_free_r1@0 true))) (let ((.def_571 (= fluent_robot_at_r1_p2@0 true))) (let ((.def_572 (= fluent_robot_free_r0@0 true))) (let ((.def_573 (= fluent_robot_at_r0_p2@0 true))) (let ((.def_574 (and .def_573 .def_572 .def_571 .def_570 .def_569 .def_568 .def_567 .def_564 .def_565 .def_565 .def_566 .def_566 .def_564 .def_565 .def_565 .def_564 .def_560 .def_563 .def_562 .def_561 .def_560 .def_559 .def_558 .def_557 .def_556 .def_555 .def_554 .def_553 .def_552 .def_551 .def_550 .def_549 .def_548 .def_547 .def_547 .def_547 .def_547 .def_546 .def_545 .def_544 .def_543))) (let ((.def_575 (and .def_574 .def_542 .def_487 .def_445 .def_415 .def_387 .def_329 .def_328 true .def_299 .def_48 .def_47 .def_46 .def_42 .def_41 .def_40 .def_37 .def_36 .def_35 .def_31 .def_30 .def_27 .def_26 .def_25 .def_22 .def_18 .def_14 .def_10 .def_7 .def_3 .def_0 true))) .def_575)))))))))))))))))))))))))))))))))))))))))))))))))))))))))))))))))))))))))))))))))))))))))))))))))))))))))))))))))))))))))))))))))))))))))))))))))))))))))))))))))))))))))))))))))))))))))))))))))))))))))))))))))))))))))))))))))))))))))))))))))))))))))))))))))))))))))))))))))))))))))))))))))))))))))))))))))))))))))))))))))))))))))))))))))))))))))))))))))))))))))))))))))))))))))))))))))))))))))))))))))))))))))))))))))))))))))))))))))))))))))))))))))))))))))))))))))))))))))))))))))))))))))))))))))))))))))))))))))))))))))))))))))))))))))))))))))))))))))))))))))))))))))))))))))
(check-sat)


